n = 14;
k = 3;
maxsize = 14;
nML = 3;
nCL = 3;
deg = [3, 4, 1, 1, 3, 4, 4, 2, 1, 4, 4, 3, 2, 4];
ML = array2d(1..3, 1..2, [9, 10, 2, 12, 11, 7]);
CL = array2d(1..3, 1..2, [6, 3, 1, 13, 5, 4]);
A = array2d(1..14, 1..14, [ 0, 0, 0, 0, 1, 0, 0, 0, 0, 1, 0, 1, 0, 0, 0, 0, 0, 1, 0, 0, 1, 0, 0, 1, 1, 0, 0, 0, 0, 0, 0, 0, 0, 0, 0, 0, 0, 0, 1, 0, 0, 0, 0, 1, 0, 0, 0, 0, 0, 0, 0, 0, 0, 0, 0, 0, 1, 0, 0, 0, 0, 1, 0, 0, 0, 0, 1, 0, 0, 0, 0, 0, 0, 0, 1, 0, 0, 0, 0, 1, 0, 1, 0, 1, 0, 1, 0, 0, 0, 0, 0, 0, 0, 1, 0, 0, 1, 1, 0, 0, 0, 0, 0, 0, 0, 0, 0, 0, 0, 1, 0, 1, 0, 0, 0, 0, 0, 0, 0, 0, 0, 0, 0, 0, 0, 1, 1, 1, 0, 0, 0, 1, 1, 0, 0, 0, 0, 0, 0, 0, 0, 1, 1, 0, 1, 0, 0, 0, 0, 0, 0, 0, 1, 0, 1, 0, 0, 0, 0, 1, 0, 1, 0, 0, 0, 0, 0, 0, 0, 0, 0, 0, 0, 0, 1, 0, 0, 0, 1, 0, 0, 0, 0, 0, 0, 0, 0, 1, 1, 1, 1, 0, 0, 0, 0, 0 ]);
W = array2d(1..14, 1..14, [ -4, -6, -3, 4, -7, -1, 6, -6, -9, 1, -6, 2, 0, -10, -4, -9, 5, 5, 9, -1, -2, -7, -9, 8, 10, 2, -1, 6, 6, 7, -5, 2, -9, -2, 7, 8, 5, -10, 10, 7, 1, -6, -3, -9, -8, -8, 8, -9, 5, -7, -4, -4, -7, 4, -7, -6, 4, -4, -4, -5, -10, 2, -3, 8, -7, -6, -2, -1, -8, 7, -4, 5, 1, -6, -2, -4, -8, 9, -7, 9, -10, -5, -1, 4, 10, 10, 3, -2, 1, -3, -2, 2, -2, 1, 3, 10, -4, 3, 9, 2, -2, 0, 5, -7, 4, -8, 6, 5, -10, 7, -1, -2, -2, 1, 6, -7, 4, -9, 10, 5, -6, 6, 9, 3, -7, 7, 9, -2, -8, 8, -10, -7, -1, -9, -1, 10, 9, 0, 6, -7, -6, 9, 3, -3, 9, 3, 3, -3, 7, -3, 0, -1, 8, 2, -10, 8, -3, -8, -3, 5, -9, 1, -1, -9, 0, 6, -5, -8, 3, -7, -1, -10, 6, 4, 0, 0, 8, -10, -2, -1, -10, -6, -2, -3, -2, -3, 6, 5, 8, -4, -8, -5, -2, 1, 1, -6 ]);